n = 100;
C = 24818;
w = [666,975,197,760,981,937,786,991,936,649,416,355,75,540,167,314,538,787,650,877,43,447,127,602,136,286,628,388,5,646,327,530,996,858,594,973,511,91,484,998,262,384,819,255,122,800,512,480,993,159,684,870,83,64,154,767,92,747,308,481,867,127,771,35,234,409,969,140,503,582,314,947,130,85,10,654,544,88,696,447,271,84,291,516,659,351,724,126,849,187,293,692,723,800,664,833,67,598,379,675];
p = [666,975,197,760,981,937,786,991,936,649,416,355,75,540,167,314,538,787,650,877,43,447,127,602,136,286,628,388,5,646,327,530,996,858,594,973,511,91,484,998,262,384,819,255,122,800,512,480,993,159,684,870,83,64,154,767,92,747,308,481,867,127,771,35,234,409,969,140,503,582,314,947,130,85,10,654,544,88,696,447,271,84,291,516,659,351,724,126,849,187,293,692,723,800,664,833,67,598,379,675];
